NAME : portcgen-18-11
COMMENT : portcgen N=18, seed=11
TYPE : TSP
DIMENSION : 18
EDGE_WEIGHT_TYPE : EUC_2D
NODE_COORD_SECTION
1 -414608 -2112
2 98707 -294605
3 -369237 77611
4 -201332 15802
5 192509 -175155
6 103936 -641891
7 197542 -124471
8 237327 386036
9 86141 -143459
10 -144664 -237118
11 37290 32394
12 92043 319696
13 -439633 -241273
14 416136 269007
15 42380 -21554
16 -207484 221044
17 326509 -186872
18 288360 46518
